units		real
atom_style	hybrid angle dipole sphere 
read_data 	data.singleLipid
include 	forcefield.elba
velocity	all create 0.0 87287

neighbor	2 bin
neigh_modify 	delay 0

fix		1 all nve/sphere update dipole
fix 		2 all langevin 303.15 303.15 100.0 48279 omega yes

thermo		100

dump		1 all custom 100 dump.trj id type mol x y z mux muy muz
dump_modify	1 sort id

timestep	10
run		10000
